NAME : LPS-n8-m156
COMMENT : (Lartu-Peter-Santi Plot, instance 2156 out of 39200. 8 customers.)
TYPE : CVRP
DIMENSION : 8
EDGE_WEIGHT_TYPE : EUC_2D
CAPACITY : 120
NODE_COORD_SECTION
 1 11 36
 2 62 37
 3 63 75
 4 88 13
 5 12 57
 6 95 58
 7 76 97
 8 57 39
DEMAND_SECTION
1 0
2 82
3 79
4 59
5 20
6 22
7 30
8 28
DEPOT_SECTION
 1
 -1
EOF
